3 13
67 26
85 21
22 51
62 61
10 95
38 35
4 89
49 41
94 25
55 4
82 47
55 38
14 74
22 21
32 42
74 11
44 83
57 77
29 7
63 50
69 35
63 16
91 37
82 16
50 3
75 84
29 42
51 0
67 98
9 78
4 97
100 69
69 18
17 97
70 89
12 15
27 3
32 91
24 70
83 8
82 82
20 10
63 7
62 46
95 19
30 61
24 31
9 0
96 74
43 46
3 13